NAME : sim51.72511.tour
COMMENT : Length = 72511
COMMENT : Found by LKH [Keld Helsgaun] Wed Aug 29 08:52:41 2018
TYPE : TOUR
DIMENSION : 51
TOUR_SECTION
1
23
37
30
28
24
27
33
7
42
25
20
4
11
2
22
10
34
35
17
13
32
6
31
41
5
51
48
49
45
39
21
40
15
19
47
14
12
9
44
29
18
16
8
43
26
3
50
38
46
36
-1
EOF
